qbf_easy_train/easy_3967_SAT.qdimacs
p cnf 25 59
a 17 4 13 0
e 1 2 3 5 6 7 8 9 10 11 12 14 15 16 18 19 20 21 22 23 24 25 0
3 2 0
3 -2 0
-1 -3 -4 0
1 3 -4 0
-1 3 4 0
1 -3 4 0
6 4 0
6 -5 0
-4 5 -6 0
9 -8 0
9 -2 0
8 2 -9 0
7 9 -10 0
-7 -9 -10 0
7 -9 10 0
-7 9 10 0
-11 -6 0
-11 10 0
6 -10 11 0
12 -13 -14 0
-12 13 -14 0
12 13 14 0
-12 -13 14 0
-15 -12 0
-15 -8 0
12 8 15 0
16 14 0
16 15 0
-14 -15 -16 0
-18 17 0
-18 -8 0
-17 8 18 0
19 -9 0
19 2 0
9 -2 -19 0
-20 8 0
-20 12 0
-8 -12 20 0
-21 20 0
-21 9 0
-20 -9 21 0
-22 -19 0
-22 -21 0
19 21 22 0
23 18 0
23 -22 0
-18 22 -23 0
24 -16 0
24 23 0
16 -23 -24 0
25 11 0
25 24 0
-11 -24 -25 0
14 -2 -15 12 -11 0
17 -18 -8 4 2 0
-17 16 -11 -12 -6 -14 21 0
-7 20 -17 19 -6 0
-15 14 -17 -25 20 4 19 0
25 0
