sat_easy_train/easy_3967_SAT.dimacs
p cnf 128 424
4 2 0
4 3 0
-2 -3 -4 0
-5 -1 0
-5 -4 0
1 4 5 0
5 2 -6 0
-5 -2 -6 0
5 -2 6 0
-5 2 6 0
9 -1 0
9 -8 0
1 8 -9 0
-7 -9 -10 0
7 9 -10 0
-7 9 10 0
7 -9 10 0
-11 -6 0
-11 -10 0
6 10 11 0
-3 13 -14 0
3 -13 -14 0
-3 -13 14 0
3 13 14 0
15 -12 0
15 -14 0
12 14 -15 0
-15 -16 -17 0
15 16 -17 0
-15 16 17 0
15 -16 17 0
-18 -11 0
-18 17 0
11 -17 18 0
20 3 0
20 -14 0
-3 14 -20 0
-21 -19 0
-21 20 0
19 -20 21 0
18 -21 -22 0
-18 21 -22 0
18 21 22 0
-18 -21 22 0
-15 -23 -24 0
15 23 -24 0
-15 23 24 0
15 -23 24 0
-25 -5 0
-25 12 0
5 -12 25 0
-25 -26 -27 0
25 26 -27 0
-25 26 27 0
25 -26 27 0
-28 -26 0
-28 -6 0
26 6 28 0
-29 27 0
-29 28 0
-27 -28 29 0
-31 30 0
-31 -16 0
-30 16 31 0
-31 -32 -33 0
31 32 -33 0
-31 32 33 0
31 -32 33 0
32 -2 -34 0
-32 2 -34 0
32 2 34 0
-32 -2 34 0
-35 -34 0
-35 23 0
34 -23 35 0
-36 -35 0
-36 8 0
35 -8 36 0
-19 -8 -37 0
19 8 -37 0
-19 8 37 0
19 -8 37 0
38 34 0
38 -19 0
-34 19 -38 0
-39 -37 0
-39 -38 0
37 38 39 0
40 -39 0
40 -38 0
39 38 -40 0
-41 40 0
-41 -7 0
-40 7 41 0
-36 -41 -42 0
36 41 -42 0
-36 41 42 0
36 -41 42 0
-43 33 0
-43 -42 0
-33 42 43 0
44 -29 0
44 43 0
29 -43 -44 0
19 2 -45 0
-19 -2 -45 0
19 -2 45 0
-19 2 45 0
-44 45 -46 0
44 -45 -46 0
-44 -45 46 0
44 45 46 0
47 -7 0
47 -16 0
7 16 -47 0
-48 -5 0
-48 -47 0
5 47 48 0
-50 48 0
-50 -49 0
-48 49 50 0
46 50 -51 0
-46 -50 -51 0
46 -50 51 0
-46 50 51 0
24 -51 -52 0
-24 51 -52 0
24 51 52 0
-24 -51 52 0
53 -19 0
53 -14 0
19 14 -53 0
-54 -53 0
-54 14 0
53 -14 54 0
55 31 0
55 20 0
-31 -20 -55 0
56 -35 0
56 -12 0
35 12 -56 0
-56 -10 -57 0
56 10 -57 0
-56 10 57 0
56 -10 57 0
7 -1 -58 0
-7 1 -58 0
7 1 58 0
-7 -1 58 0
15 -58 -59 0
-15 58 -59 0
15 58 59 0
-15 -58 59 0
60 57 0
60 59 0
-57 -59 -60 0
61 29 0
61 45 0
-29 -45 -61 0
62 60 0
62 -61 0
-60 61 -62 0
-63 -55 0
-63 -62 0
55 62 63 0
65 23 0
65 -64 0
-23 64 -65 0
66 48 0
66 -65 0
-48 65 -66 0
-67 35 0
-67 -38 0
-35 38 67 0
-66 67 -68 0
66 -67 -68 0
-66 -67 68 0
66 67 68 0
-69 63 0
-69 68 0
-63 -68 69 0
70 54 0
70 -69 0
-54 69 -70 0
71 52 0
71 -70 0
-52 70 -71 0
15 33 -72 0
-15 -33 -72 0
15 -33 72 0
-15 33 72 0
-73 23 0
-73 65 0
-23 -65 73 0
-74 -73 0
-74 6 0
73 -6 74 0
-75 -72 0
-75 74 0
72 -74 75 0
-76 -36 0
-76 -9 0
36 9 76 0
-77 -76 0
-77 39 0
76 -39 77 0
29 -77 -78 0
-29 77 -78 0
29 77 78 0
-29 -77 78 0
-79 75 0
-79 78 0
-75 -78 79 0
80 -12 0
80 77 0
12 -77 -80 0
79 80 -81 0
-79 -80 -81 0
79 -80 81 0
-79 80 81 0
82 6 0
82 -65 0
-6 65 -82 0
37 -82 -83 0
-37 82 -83 0
37 82 83 0
-37 -82 83 0
-84 37 0
-84 -23 0
-37 23 84 0
7 -84 -85 0
-7 84 -85 0
7 84 85 0
-7 -84 85 0
-86 83 0
-86 -85 0
-83 85 86 0
87 -81 0
87 -86 0
81 86 -87 0
-64 2 -88 0
64 -2 -88 0
-64 -2 88 0
64 2 88 0
89 23 0
89 -88 0
-23 88 -89 0
90 32 -91 0
-90 -32 -91 0
90 -32 91 0
-90 32 91 0
92 42 0
92 91 0
-42 -91 -92 0
-93 89 0
-93 92 0
-89 -92 93 0
94 -90 0
94 25 0
90 -25 -94 0
-95 -40 0
-95 -28 0
40 28 95 0
-96 -95 0
-96 39 0
95 -39 96 0
-97 94 0
-97 96 0
-94 -96 97 0
98 93 0
98 97 0
-93 -97 -98 0
-99 -20 0
-99 45 0
20 -45 99 0
-100 -98 0
-100 99 0
98 -99 100 0
-101 27 0
-101 8 0
-27 -8 101 0
19 101 -102 0
-19 -101 -102 0
19 -101 102 0
-19 101 102 0
-36 1 -103 0
36 -1 -103 0
-36 -1 103 0
36 1 103 0
-53 -2 -104 0
53 2 -104 0
-53 2 104 0
53 -2 104 0
-105 104 0
-105 -83 0
-104 83 105 0
106 -103 0
106 105 0
103 -105 -106 0
-107 -31 0
-107 9 0
31 -9 107 0
108 107 0
108 -38 0
-107 38 -108 0
109 106 0
109 108 0
-106 -108 -109 0
110 102 0
110 -109 0
-102 109 -110 0
-100 -110 -111 0
100 110 -111 0
-100 110 111 0
100 -110 111 0
112 -87 0
112 -111 0
87 111 -112 0
113 71 0
113 112 0
-71 -112 -113 0
22 113 -114 0
-22 -113 -114 0
22 -113 114 0
-22 113 114 0
-115 -45 0
-115 -7 0
45 7 115 0
116 104 0
116 16 0
-104 -16 -116 0
-117 -115 0
-117 -116 0
115 116 117 0
118 34 0
118 35 0
-34 -35 -118 0
119 118 0
119 -2 0
-118 2 -119 0
-120 26 0
-120 107 0
-26 -107 120 0
121 -119 0
121 120 0
119 -120 -121 0
-122 117 0
-122 -121 0
-117 121 122 0
-4 14 -123 0
4 -14 -123 0
-4 -14 123 0
4 14 123 0
124 56 0
124 -32 0
-56 32 -124 0
125 5 0
125 124 0
-5 -124 -125 0
-126 -123 0
-126 -125 0
123 125 126 0
-127 -122 0
-127 126 0
122 -126 127 0
-128 -114 0
-128 -127 0
114 127 128 0
69 -32 107 -85 -118 0
-93 41 0
54 85 21 0
18 -117 -114 -27 0
-49 -104 -44 -52 128 0
-51 5 0
-44 -98 -85 0
18 -28 45 0
97 109 87 -95 0
-102 -42 -61 -70 -120 0
121 -41 113 -84 0
92 -51 35 84 0
-3 -99 0
57 -72 46 114 96 0
2 -32 39 56 -85 25 0
89 -106 119 0
108 -5 0
49 98 -22 0
94 -23 0
38 33 25 0
-41 83 -74 -71 0
85 55 -91 -123 0
41 22 -99 -103 0
4 -49 -77 -105 -11 126 0
79 74 32 0
124 103 -105 -85 0
66 -105 -6 -98 0
-83 -111 127 -35 0
-38 -5 -61 -32 -100 0
128 62 -39 -71 61 0
-53 -93 -58 0
113 124 -82 104 0
-81 -37 -56 128 20 0
-20 11 -38 -83 0
50 19 55 -62 0
-117 101 -89 -21 41 67 0
-59 128 106 68 82 0
-54 89 72 0
-43 57 -77 -46 0
114 121 79 -11 -96 14 0
53 67 54 0
109 49 -12 -58 29 0
-44 -79 -49 0
8 -80 110 23 65 -55 0
112 80 41 0
-68 61 76 0
6 -98 0
75 98 22 0
99 120 103 0
-65 -74 84 0
-102 -35 0
-5 -30 86 -96 -41 0
-37 -51 116 -96 47 40 0
126 -57 -106 -122 -31 0
-66 63 -3 25 0
128 0
